c Generated map
c Size: 9 * 9, weights in range: 1 to 10, walls: True, with ratio 0.05
c dim 3 of 7
c
p sp 81 130
c graph contains 81 nodes and 130 arcs
c
a 1 10 8
a 10 1 8
a 1 2 10
a 2 1 10
a 2 11 8
a 11 2 8
a 2 3 10
a 3 2 10
a 3 12 3
a 12 3 3
a 3 4 10
a 4 3 10
a 4 13 1
a 13 4 1
a 4 5 4
a 5 4 4
a 5 14 4
a 14 5 4
a 5 6 4
a 6 5 4
a 6 15 5
a 15 6 5
a 8 17 5
a 17 8 5
a 8 9 1
a 9 8 1
a 10 19 5
a 19 10 5
a 10 11 4
a 11 10 4
a 11 20 3
a 20 11 3
a 11 12 7
a 12 11 7
a 12 21 8
a 21 12 8
a 12 13 6
a 13 12 6
a 13 22 8
a 22 13 8
a 13 14 10
a 14 13 10
a 14 23 8
a 23 14 8
a 14 15 10
a 15 14 10
a 15 24 6
a 24 15 6
a 15 16 5
a 16 15 5
a 16 25 3
a 25 16 3
a 16 17 7
a 17 16 7
a 17 26 10
a 26 17 10
a 19 28 3
a 28 19 3
a 19 20 4
a 20 19 4
a 20 29 3
a 29 20 3
a 20 21 6
a 21 20 6
a 21 22 1
a 22 21 1
a 22 31 10
a 31 22 10
a 22 23 8
a 23 22 8
a 23 32 4
a 32 23 4
a 23 24 7
a 24 23 7
a 24 33 1
a 33 24 1
a 24 25 8
a 25 24 8
a 25 34 1
a 34 25 1
a 25 26 3
a 26 25 3
a 26 35 10
a 35 26 10
a 26 27 4
a 27 26 4
a 27 36 7
a 36 27 7
a 28 37 7
a 37 28 7
a 28 29 1
a 29 28 1
a 29 38 6
a 38 29 6
a 31 40 3
a 40 31 3
a 31 32 8
a 32 31 8
a 32 41 2
a 41 32 2
a 32 33 5
a 33 32 5
a 33 42 2
a 42 33 2
a 33 34 7
a 34 33 7
a 34 43 7
a 43 34 7
a 34 35 2
a 35 34 2
a 35 44 9
a 44 35 9
a 35 36 2
a 36 35 2
a 36 45 4
a 45 36 4
a 37 46 2
a 46 37 2
a 37 38 3
a 38 37 3
a 38 47 2
a 47 38 2
a 38 39 3
a 39 38 3
a 39 48 4
a 48 39 4
a 39 40 4
a 40 39 4
a 40 49 2
a 49 40 2
a 40 41 5
a 41 40 5
a 41 50 5
a 50 41 5
a 41 42 5
a 42 41 5
a 42 51 6
a 51 42 6
a 42 43 1
a 43 42 1
a 43 52 3
a 52 43 3
a 43 44 6
a 44 43 6
a 44 53 8
a 53 44 8
a 44 45 1
a 45 44 1
a 45 54 2
a 54 45 2
a 46 55 2
a 55 46 2
a 46 47 1
a 47 46 1
a 47 56 5
a 56 47 5
a 47 48 6
a 48 47 6
a 48 57 5
a 57 48 5
a 48 49 5
a 49 48 5
a 49 58 6
a 58 49 6
a 49 50 10
a 50 49 10
a 50 59 10
a 59 50 10
a 50 51 10
a 51 50 10
a 51 52 7
a 52 51 7
a 52 61 2
a 61 52 2
a 52 53 9
a 53 52 9
a 53 62 1
a 62 53 1
a 53 54 2
a 54 53 2
a 54 63 7
a 63 54 7
a 55 64 3
a 64 55 3
a 55 56 2
a 56 55 2
a 56 65 10
a 65 56 10
a 56 57 4
a 57 56 4
a 57 66 7
a 66 57 7
a 57 58 2
a 58 57 2
a 58 67 9
a 67 58 9
a 58 59 7
a 59 58 7
a 59 68 1
a 68 59 1
a 61 70 10
a 70 61 10
a 61 62 1
a 62 61 1
a 62 71 8
a 71 62 8
a 62 63 9
a 63 62 9
a 63 72 2
a 72 63 2
a 64 73 4
a 73 64 4
a 64 65 8
a 65 64 8
a 65 74 7
a 74 65 7
a 65 66 10
a 66 65 10
a 66 75 4
a 75 66 4
a 66 67 7
a 67 66 7
a 67 76 1
a 76 67 1
a 67 68 8
a 68 67 8
a 68 77 8
a 77 68 8
a 68 69 2
a 69 68 2
a 69 78 8
a 78 69 8
a 69 70 1
a 70 69 1
a 70 79 9
a 79 70 9
a 70 71 4
a 71 70 4
a 71 80 9
a 80 71 9
a 71 72 5
a 72 71 5
a 72 81 8
a 81 72 8
a 73 74 10
a 74 73 10
a 74 75 4
a 75 74 4
a 75 76 8
a 76 75 8
a 76 77 4
a 77 76 4
a 77 78 7
a 78 77 7
a 78 79 1
a 79 78 1
a 79 80 3
a 80 79 3
a 80 81 4
a 81 80 4
